  50 

  42  17  41   1  46   2  25  24  24  18  35  21  33  17  30  39  40  17  50  32  21   4  24  46  41  34  34  23  41  28  22  13   2   9  50  33  20  33   2  16   4  23  17  25   2   8  11  43  43   4

 563

  23   4  11   2  10   9  21  16   4  11  20  18   2  17  22  18   4   8   7   2  20  23   3   5  19  17  13  19  16  12  20  24  25   8  24  11  10  17   3  15  14  15  13  23   4  24  23   2  20   2

